width = 35;

n_circuits = 22;

circuit_x = array1d(1..22, [3, 3, 3, 3, 3, 3, 3, 3, 3, 3, 3, 4, 4, 4, 4, 4, 4, 4,
    4, 4, 4, 14]);

circuit_y = array1d(1..22, [3, 4, 5, 6, 7, 8, 9, 10, 12, 19, 22, 3, 4, 5, 6, 7, 8,
    12, 17, 20, 23, 35]);

opt_height = 35;

max_y = 35;

